sat
(:binary-propagations  472
 :decisions            488
 :del-clause           95
 :final-checks         3
 :max-generation       1
 :max-memory           24.52
 :memory               21.32
 :mk-bool-var          876
 :mk-clause            183
 :mk-clause-binary     676
 :num-allocs           11751450
 :num-checks           1
 :propagations         496
 :quant-instantiations 100
 :restarts             2
 :rlimit-count         134997
 :time                 0.03)
